\ENCODING=ISO-8859-1
\Problem name: Initial

Minimize
 obj: 30 x1 + 114 x2 + 34 x3 + 90 x4 + 68 x5 + 72 x6 + 69 x7 + 87 x8 + 25 x9
      + 36 x10 + 27 x11 + 43 x12 + 86 x13 + 88 x14 + 69 x15 + 64 x16 + 68 x17
      + 88 x18 + 25 x19 + 39 x20 + 44 x21 + 21 x22 + 29 x23 + 34 x24 + 36 x25
      + 13 x26 + 42 x27 + 52 x28 + 19 x29 + 39 x30 + 76 x31 + 94 x32 + 24 x33
      + 52 x34 + 54 x35 + 34 x36 + 30 x37 + 39 x38 + 50 x39 + 76 x40 + 168 x41
      + 224 x42 + 96 x43 + 104 x44 + 156 x45 + 110 x46 + 125 x47 + 30 x48
      + 66 x49 + 93 x50 + 102 x51 + 30 x52 + 34 x53 + 152 x54 + 160 x55
      + 69 x56 + 100 x57 + 140 x58 + 35 x59 + 63 x60 + 78 x61 + 88 x62
      + 100 x63 + 195 x64 + 250 x65 + 84 x66 + 1000 x67 + 1000 x68 + 1000 x69
      + 1000 x70 + 1000 x71 + 1000 x72 + 1000 x73 + 1000 x74 + 1000 x75
      + 1000 x76 + 1000 x77 + 1000 x78 + 1000 x79 + 1000 x80 + 1000 x81
      + 1000 x82 + 1000 x83 + 1000 x84 + 1000 x85 + 1000 x86 + 1000 x87
      + 1000 x88 + 1000 x89 + 1000 x90 + 1000 x91 + 1000 x92 + 1000 x93
      + 1000 x94 + 1000 x95 + 1000 x96 + 1000 x97 + 1000 x98 + 1000 x99
      + 1000 x100 + 1000 x101 + 1000 x102 + 1000 x103 + 1000 x104 + 1000 x105
      + 1000 x106 + 1000 x107 + 1000 x108 + 1000 x109 + 1000 x110 + 1000 x111
      + 1000 x112 + 1000 x113 + 1000 x114 + 1000 x115 + 1000 x116 + 1000 x117
      + 1000 x118 + 1000 x119 + 1000 x120 + 1000 x121 + 1000 x122 + 1000 x123
      + 1000 x124 + 1000 x125 + 1000 x126
Subject To
 Commodity_1:  x1 + x2  = 1
 Commodity_2:  x3 + x4  = 1
 Commodity_3:  x5 + x6  = 1
 Commodity_4:  x7 + x8  = 1
 Commodity_5:  x9  = 1
 Commodity_6:  x10  = 1
 Commodity_7:  x11 + x12  = 1
 Commodity_8:  x13 + x14  = 1
 Commodity_9:  x15  = 1
 Commodity_10: x16  = 1
 c11:          x17 + x18  = 1
 c12:          x19 + x20  = 1
 c13:          x21  = 1
 c14:          x22 + x23  = 1
 c15:          x24 + x25  = 1
 c16:          x26  = 1
 c17:          x27 + x28  = 1
 c18:          x29  = 1
 c19:          x30  = 1
 c20:          x31 + x32  = 1
 c21:          x33  = 1
 c22:          x34 + x35  = 1
 c23:          x36  = 1
 c24:          x37 + x38  = 1
 c25:          x39 + x40  = 1
 c26:          x41 + x42  = 1
 c27:          x43  = 1
 c28:          x44 + x45  = 1
 c29:          x46 + x47  = 1
 c30:          x48 + x49  = 1
 c31:          x50 + x51  = 1
 c32:          x52 + x53  = 1
 c33:          x54 + x55  = 1
 c34:          x56  = 1
 c35:          x57 + x58  = 1
 c36:          x59  = 1
 c37:          x60 + x61  = 1
 c38:          x62 + x63  = 1
 c39:          x64 + x65  = 1
 c40:          x66  = 1
 c41:          x9 + x12 + 2 x14 + 2 x40 + 5 x58 - x67 - Rgc41  = 0
 c42:          2 x3 + 2 x4 + 2 x32 + 4 x42 + 5 x65 - x68 - Rgc42  = 0
 c43:          - x69 - Rgc43  = 0
 c44:          3 x7 - x70 - Rgc44  = 0
 c45:          2 x10 - x71 - Rgc45  = 0
 c46:          3 x1 + 2 x3 + 3 x7 + x19 - x72 - Rgc46  = 0
 c47:          3 x2 + 2 x4 + 3 x8 - x73 - Rgc47  = 0
 c48:          4 x5 - x74 - Rgc48  = 0
 c49:          4 x6 + x9 + x12 + 2 x14 - x75 - Rgc49  = 0
 c50:          x12 + 2 x14 - x76 - Rgc50  = 0
 c51:          x11 + 2 x13 - x77 - Rgc51  = 0
 c52:          2 x52 - x78 - Rgc52  = 0
 c53:          2 x31 + 4 x41 + 5 x64 - x79 - Rgc53  = 0
 c54:          3 x8 + x23 + 2 x28 + 4 x45 + 5 x47 + 2 x49 + 3 x51 + 2 x53 - x80
               - Rgc54  = 0
 c55:          x11 + 2 x48 - x81 - Rgc55  = 0
 c56:          2 x13 + 5 x46 + 3 x50 - x82 - Rgc56  = 0
 c57:          2 x53 - x83 - Rgc57  = 0
 c58:          4 x41 + 5 x64 - x84 - Rgc58  = 0
 c59:          5 x47 + 2 x49 + 3 x51 + 4 x54 + 4 x55 + 3 x56 - x85 - Rgc59  = 0
 c60:          3 x2 + 2 x4 + x20 + 2 x32 + 2 x40 + 4 x42 + 5 x58 + 5 x65 - x86
               - Rgc60  = 0
 c61:          5 x57 - x87 - Rgc61  = 0
 c62:          3 x8 + 7 x59 - x88 - Rgc62  = 0
 c63:          - x89 - Rgc63  = 0
 c64:          3 x61 - x90 - Rgc64  = 0
 c65:          x11 + 2 x48 + 3 x60 - x91 - Rgc65  = 0
 c66:          2 x24 + 2 x34 + 2 x39 - x92 - Rgc66  = 0
 c67:          x23 + 2 x28 + 2 x31 + 4 x45 - x93 - Rgc67  = 0
 c68:          - x94 - Rgc68  = 0
 c69:          2 x25 + 2 x35 + 3 x38 + 3 x60 + 3 x61 + 4 x63 - x95 - Rgc69  = 0
 c70:          4 x18 + 3 x43 + 4 x55 - x96 - Rgc70  = 0
 c71:          2 x27 + x29 - x97 - Rgc71  = 0
 c72:          3 x15 - x98 - Rgc72  = 0
 c73:          2 x13 + 2 x14 + 3 x30 + 3 x50 + 3 x51 + 3 x66 - x99 - Rgc73  = 0
 c74:          2 x16 + x26 - x100 - Rgc74  = 0
 c75:          x12 + x20 + 2 x32 + 2 x36 + 4 x42 + 2 x49 - x101 - Rgc75  = 0
 c76:          x19 + 2 x25 + 2 x35 - x102 - Rgc76  = 0
 c77:          4 x6 + x12 + 2 x14 + 4 x18 + x20 + x23 - x103 - Rgc77  = 0
 c78:          4 x17 + 4 x54 - x104 - Rgc78  = 0
 c79:          2 x21 + x22 - x105 - Rgc79  = 0
 c80:          3 x15 + 2 x16 - x106 - Rgc80  = 0
 c81:          - x107 - Rgc81  = 0
 c82:          x22 + 2 x27 + 4 x41 + 4 x44 + 5 x64 - x108 - Rgc82  = 0
 c83:          5 x65 - x109 - Rgc83  = 0
 c84:          3 x38 + 5 x47 + 2 x49 + 3 x51 + 4 x55 + 3 x61 - x110 - Rgc84
                = 0
 c85:          3 x37 + 4 x54 + 4 x62 - x111 - Rgc85  = 0
 c86:          3 x56 - x112 - Rgc86  = 0
 c87:          2 x21 + x33 - x113 - Rgc87  = 0
 c88:          x29 - x114 - Rgc88  = 0
 c89:          3 x30 + 2 x31 + 2 x32 - x115 - Rgc89  = 0
 c90:          x33 - x116 - Rgc90  = 0
 c91:          2 x34 + 2 x35 + 2 x36 - x117 - Rgc91  = 0
 c92:          4 x42 + 3 x43 + 4 x45 + 4 x63 + 3 x66 - x118 - Rgc92  = 0
 c93:          4 x41 + 4 x44 - x119 - Rgc93  = 0
 c94:          x20 + 2 x32 + 2 x40 + 4 x42 - x120 - Rgc94  = 0
 c95:          2 x39 + 3 x60 - x121 - Rgc95  = 0
 c96:          4 x62 + 5 x64 - x122 - Rgc96  = 0
 c97:          4 x63 + 5 x65 - x123 - Rgc97  = 0
 c98:          4 x41 + 4 x44 + 5 x65 - x124 - Rgc98  = 0
 c99:          4 x63 + 3 x66 - x125 - Rgc99  = 0
 c100:         - x126 - Rgc100  = 0
Bounds
 0 <= Rgc41 <= 5
 0 <= Rgc42 <= 5
 0 <= Rgc43 <= 2
 0 <= Rgc44 <= 3
 0 <= Rgc45 <= 4
 0 <= Rgc46 <= 5
 0 <= Rgc47 <= 4
 0 <= Rgc48 <= 2
 0 <= Rgc49 <= 2
 0 <= Rgc50 <= 5
 0 <= Rgc51 <= 8
 0 <= Rgc52 <= 2
 0 <= Rgc53 <= 8
 0 <= Rgc54 <= 5
 0 <= Rgc55 <= 10
 0 <= Rgc56 <= 5
 0 <= Rgc57 <= 3
 0 <= Rgc58 <= 5
 0 <= Rgc59 <= 14
 0 <= Rgc60 <= 4
 0 <= Rgc61 <= 4
 0 <= Rgc62 <= 10
 0 <= Rgc63 <= 3
 0 <= Rgc64 <= 4
 0 <= Rgc65 <= 5
 0 <= Rgc66 <= 2
 0 <= Rgc67 <= 5
 0 <= Rgc68 <= 3
 0 <= Rgc69 <= 10
 0 <= Rgc70 <= 8
 0 <= Rgc71 <= 5
 0 <= Rgc72 <= 8
 0 <= Rgc73 <= 12
 0 <= Rgc74 <= 10
 0 <= Rgc75 <= 5
 0 <= Rgc76 <= 2
 0 <= Rgc77 <= 10
 0 <= Rgc78 <= 6
 0 <= Rgc79 <= 10
 0 <= Rgc80 <= 8
 0 <= Rgc81 <= 6
 0 <= Rgc82 <= 14
 0 <= Rgc83 <= 4
 0 <= Rgc84 <= 5
 0 <= Rgc85 <= 10
 0 <= Rgc86 <= 5
 0 <= Rgc87 <= 8
 0 <= Rgc88 <= 10
 0 <= Rgc89 <= 8
 0 <= Rgc90 <= 5
 0 <= Rgc91 <= 12
 0 <= Rgc92 <= 10
 0 <= Rgc93 <= 8
 0 <= Rgc94 <= 5
 0 <= Rgc95 <= 5
 0 <= Rgc96 <= 8
 0 <= Rgc97 <= 7
 0 <= Rgc98 <= 10
 0 <= Rgc99 <= 8
 0 <= Rgc100 <= 7
End
